<instance format="XCSP3" type="CSP">
  <variables>
    <var id="x0"> 2 4 7 10 13 </var>
    <var id="x1"> 1 2 6 10 </var>
    <var id="x2"> 1 2 6 </var>
    <var as="x0" id="x3"/>
    <var id="x4"> 4 6 10 13 </var>
    <var id="x5"> 1 2 4 10 13 </var>
    <var id="x6"> 1 2 7 13 </var>
    <var id="x7"> 3 4 7 10 13 </var>
    <var id="x8"> 1 4 8..10 15 </var>
    <var id="x9"> 9 10 15 </var>
    <var id="x10"> 1 5 8 10 </var>
    <var id="x11"> 1 5 10 15 </var>
    <var id="x12"> 1 4 8 9 14 </var>
    <var id="x13"> 1 8 9 14 </var>
    <var id="x14"> 1 5 10 14 </var>
    <var id="x15"> 4 5 10 15 </var>
    <var id="x16"> 6 9..11 13 </var>
    <var id="x17"> 1 6 10 17 </var>
    <var id="x18"> 1 6 9 11 17 </var>
    <var id="x19"> 9 10 13 </var>
    <var id="x20"> 9 10 16 17 </var>
    <var id="x21"> 1 6 9 10 13 16 </var>
    <var id="x22"> 6 13 16 </var>
    <var id="x23"> 6 11 13 </var>
    <var id="x24"> 0 4 7 10 12 </var>
    <var id="x25"> 0 6 10 12 </var>
    <var id="x26"> 0 1 6 10 </var>
    <var id="x27"> 1 4 10 12 14 </var>
    <var id="x28"> 4 7 10 12 </var>
    <var id="x29"> 1 4 10 </var>
    <var id="x30"> 0 1 7 10 12 14 </var>
    <var id="x31"> 4 6 12 14 </var>
    <var id="x32"> 1 3 8 15 17 </var>
    <var id="x33"> 1 3 8 </var>
    <var id="x34"> 1 3 12 15 </var>
    <var id="x35"> 8 12 </var>
    <var id="x36"> 1 12 </var>
    <var id="x37"> 1 8 15 </var>
    <var id="x38"> 3 11 15 </var>
    <var id="x39"> 8 9 15 </var>
    <var id="x40"> 8 9 11 </var>
    <var id="x41"> 2 9 11 15 </var>
    <var id="x42"> 2 8 9 13 </var>
    <var id="x43"> 11 13 15 </var>
    <var id="x44"> 0 5 13 15 </var>
    <var id="x45"> 13 15 </var>
    <var id="x46"> 0 5 11 13 15 </var>
    <var id="x47"> 1 3 10 15 </var>
    <var id="x48"> 1 2 6 15 </var>
    <var id="x49"> 1 3 10 15 </var>
    <var id="x50"> 0 2 10 </var>
    <var id="x51"> 1 2 7 </var>
    <var id="x52"> 0 1 7 10 </var>
    <var id="x53"> 0 3 7 10 15 </var>
    <var id="x54"> 0 3 6 15 </var>
    <var id="x55"> 3 6 10 13 </var>
    <var id="x56"> 3 10 13 15 </var>
    <var id="x57"> 9 10 17 </var>
    <var id="x58"> 6 10 13 15 17 </var>
    <var id="x59"> 7 9 13 </var>
    <var id="x60"> 3 7 10 13 15 </var>
    <var id="x61"> 6 9 10 13 15 </var>
    <var id="x62"> 3 6 13 15 </var>
    <var id="x63"> 0 6 12 13 </var>
    <var id="x64"> 5 6 13 </var>
    <var id="x65"> 0 2 5 6 </var>
    <var id="x66"> 2 6 12 14 </var>
    <var id="x67"> 2 12 13 </var>
    <var id="x68"> 0 2 12 16 </var>
    <var id="x69"> 2 5 13 16 </var>
    <var id="x70"> 2 12..14 </var>
    <var id="x71"> 4 10 15 </var>
    <var id="x72"> 6 10..13 15 </var>
    <var id="x73"> 4 10 12..15 </var>
    <var id="x74"> 4 10 12 </var>
    <var id="x75"> 4 6 10 11 13 15 </var>
    <var id="x76"> 4 10 13 15 </var>
    <var id="x77"> 4 6 12..15 </var>
    <var id="x78"> 6 11 13..15 </var>
    <var id="x79"> 0 12 13 </var>
    <var id="x80"> 3 9 17 </var>
    <var id="x81"> 0 9 12 13 </var>
    <var id="x82"> 9 14 17 </var>
    <var id="x83"> 13 17 </var>
    <var id="x84"> 9 12..14 </var>
    <var id="x85"> 9 13 16 </var>
    <var id="x86"> 3 12..14 16 </var>
    <var id="x87"> 8..10 15 </var>
    <var id="x88"> 9 10 12 13 15 </var>
    <var id="x89"> 10 12 13 15 </var>
    <var id="x90"> 9 10 12 </var>
    <var id="x91"> 5 8 10 13 </var>
    <var id="x92"> 8 9 12 13 </var>
    <var id="x93"> 5 10 12 13 </var>
    <var id="x94"> 4 10 12 13 </var>
    <var id="x95"> 1 5 10 </var>
    <var id="x96"> 1 4 8 14 </var>
    <var id="x97"> 1 12 14 </var>
    <var id="x98"> 1 4 5 8 10 13 </var>
    <var id="x99"> 1 5 10 12..14 </var>
    <var id="x100"> 1 8 10 13 </var>
    <var id="x101"> 5 13 14 </var>
    <var id="x102"> 4 10 13 </var>
    <var id="x103"> 1 5 10 15 17 </var>
    <var id="x104"> 1 4 5 10 13 </var>
    <var id="x105"> 1 13 14 </var>
    <var id="x106"> 1 5 10 13 14 </var>
    <var id="x107"> 1 10 13 15 </var>
    <var id="x108"> 4 13..15 </var>
    <var id="x109"> 5 13..15 </var>
    <var id="x110"> 0 6 10 12 13 15 </var>
    <var id="x111"> 6 10 13 </var>
    <var id="x112"> 4 6 </var>
    <var id="x113"> 6 12 15 </var>
    <var as="x94" id="x114"/>
    <var id="x115"> 0 4 10 12 </var>
    <var id="x116"> 0 4 10 13 15 </var>
    <var id="x117"> 0 2 4 10 </var>
    <var id="x118"> 1 2 9 15 </var>
    <var id="x119"> 1 3 4 10 15 </var>
    <var id="x120"> 4 10 15 </var>
    <var id="x121"> 0 3 4 10 15 </var>
    <var id="x122"> 1 9 10 15 </var>
    <var id="x123"> 3 4 15 </var>
    <var id="x124"> 0 3 15 </var>
    <var id="x125"> 6 8 13 </var>
    <var id="x126"> 4 6 8 9 11 </var>
    <var id="x127"> 2 6 9 11 </var>
    <var id="x128"> 2 4 8 9 13 </var>
    <var id="x129"> 2 4 9 16 </var>
    <var id="x130"> 4 6 11 13 </var>
    <var id="x131"> 2 4 8 13 16 </var>
    <var id="x132"> 6 8 9 13 16 </var>
    <var id="x133"> 2 4 7 10 12 13 </var>
    <var id="x134"> 1 4 8 10 </var>
    <var id="x135"> 1 8 10 13 </var>
    <var id="x136"> 1 2 10 </var>
    <var id="x137"> 1 4 8 </var>
    <var id="x138"> 1 4 10 12 13 </var>
    <var id="x139"> 1 2 4 8 10 13 </var>
    <var id="x140"> 1 7 10 12 13 </var>
  </variables>
  <constraints>
    <group>
      <allDifferent> %... </allDifferent>
      <args> x0 x1 x2 x3 x4 x5 x6 x7 </args>
      <args> x8 x9 x10 x11 x12 x13 x14 x15 </args>
      <args> x16 x17 x18 x19 x20 x21 x22 x23 </args>
      <args> x24 x25 x26 x27 x28 x29 x30 x31 </args>
      <args> x32 x33 x34 x35 x36 x37 x38 </args>
      <args> x39 x40 x41 x42 x43 x44 x45 x46 </args>
      <args> x47 x48 x49 x50 x51 x52 x53 x54 </args>
      <args> x55 x56 x57 x58 x59 x60 x61 x62 </args>
      <args> x63 x64 x65 x66 x67 x68 x69 x70 </args>
      <args> x71 x72 x73 x74 x75 x76 x77 x78 </args>
      <args> x79 x80 x81 x82 x83 x84 x85 x86 </args>
      <args> x87 x88 x89 x90 x91 x92 x93 </args>
      <args> x94 x95 x96 x97 x98 x99 x100 x101 </args>
      <args> x102 x103 x104 x105 x106 x107 x108 x109 </args>
      <args> x110 x111 x112 x113 x114 x115 x116 </args>
      <args> x117 x118 x119 x120 x121 x122 x123 x124 </args>
      <args> x125 x126 x127 x128 x129 x130 x131 x132 </args>
      <args> x133 x134 x135 x136 x137 x138 x139 x140 </args>
      <args> x0 x24 x79 x94 x102 x117 x133 </args>
      <args> x8 x32 x39 x47 x71 x80 x87 x134 </args>
      <args> x9 x16 x25 x63 x72 x81 x88 x110 </args>
      <args> x10 x33 x55 x64 x111 x125 x135 </args>
      <args> x1 x11 x17 x26 x65 x95 x103 x136 </args>
      <args> x12 x18 x40 x82 x96 x112 x126 x137 </args>
      <args> x2 x41 x48 x66 x97 x113 x118 x127 </args>
      <args> x27 x34 x49 x56 x73 x89 x119 x138 </args>
      <args> x3 x19 x28 x35 x42 x67 x114 x128 </args>
      <args> x20 x50 x57 x68 x74 x90 x115 x129 </args>
      <args> x4 x43 x58 x75 x83 x120 x130 </args>
      <args> x5 x29 x69 x91 x98 x104 x131 x139 </args>
      <args> x6 x13 x51 x59 x70 x84 x92 x105 </args>
      <args> x14 x30 x36 x52 x93 x99 x106 x140 </args>
      <args> x7 x15 x44 x53 x60 x76 x116 x121 </args>
      <args> x21 x37 x61 x85 x100 x107 x122 x132 </args>
      <args> x22 x31 x45 x62 x77 x86 x108 x123 </args>
      <args> x23 x38 x46 x54 x78 x101 x109 x124 </args>
    </group>
  </constraints>
</instance>

